presolving:
(round 1, fast)       73 del vars, 773 del conss, 0 add conss, 212 chg bounds, 0 chg sides, 148 chg coeffs, 0 upgd conss, 0 impls, 750 clqs
(round 2, fast)       150 del vars, 780 del conss, 0 add conss, 212 chg bounds, 0 chg sides, 148 chg coeffs, 0 upgd conss, 0 impls, 750 clqs
   (0.2s) running MILP presolver
   (0.3s) MILP presolver found nothing
(round 3, exhaustive) 154 del vars, 780 del conss, 0 add conss, 212 chg bounds, 0 chg sides, 148 chg coeffs, 846 upgd conss, 0 impls, 750 clqs
   (0.7s) probing: 51/18846 (0.3%) - 0 fixings, 0 aggregations, 0 implications, 0 bound changes
   (0.7s) probing aborted: 50/50 successive totally useless probings
   (0.7s) symmetry computation started: requiring (bin +, int -, cont +), (fixed: bin -, int +, cont -)
   (0.8s) no symmetry present
presolving (4 rounds: 4 fast, 2 medium, 2 exhaustive):
 296 deleted vars, 898 deleted constraints, 0 added constraints, 212 tightened bounds, 0 added holes, 0 changed sides, 148 changed coefficients
 71 implications, 19500 cliques
presolved problem has 18775 variables (18775 bin, 0 int, 0 impl, 0 cont) and 775 constraints
     25 constraints of type <knapsack>
    750 constraints of type <setppc>
Presolving Time: 0.70

 time | node  | left  |LP iter|LP it/n|mem/heur|mdpt |vars |cons |rows |cuts |sepa|confs|strbr|  dualbound   | primalbound  |  gap   | compl. 
p 1.1s|     1 |     0 |     0 |     - |  clique|   0 |  18k| 775 | 775 |   0 |  0 |   0 |   0 | 7.236845e+04 | 2.844545e+04 | 154.41%| unknown
  3.5s|     1 |     0 |  3990 |     - |   177M |   0 |  18k| 831 | 775 |   0 |  0 | 106 |   0 | 3.785941e+04 | 2.844545e+04 |  33.09%| unknown
r 3.5s|     1 |     0 |  3990 |     - |simplero|   0 |  18k| 830 | 775 |   0 |  0 | 106 |   0 | 3.785941e+04 | 3.224445e+04 |  17.41%| unknown
  4.2s|     1 |     0 |  4079 |     - |   179M |   0 |  18k| 830 | 779 |   4 |  1 | 106 |   0 | 3.784336e+04 | 3.224445e+04 |  17.36%| unknown
  4.3s|     1 |     0 |  4133 |     - |   180M |   0 |  18k| 830 | 784 |   9 |  2 | 106 |   0 | 3.784127e+04 | 3.224445e+04 |  17.36%| unknown
r 4.3s|     1 |     0 |  4133 |     - |rounding|   0 |  18k| 830 | 784 |   9 |  2 | 106 |   0 | 3.784127e+04 | 3.451945e+04 |   9.62%| unknown
r 4.3s|     1 |     0 |  4133 |     - |shifting|   0 |  18k| 830 | 784 |   9 |  2 | 106 |   0 | 3.784127e+04 | 3.608145e+04 |   4.88%| unknown
  4.5s|     1 |     0 |  4181 |     - |   180M |   0 |  18k| 830 | 787 |  12 |  3 | 106 |   0 | 3.784005e+04 | 3.608145e+04 |   4.87%| unknown
  4.5s|     1 |     0 |  4181 |     - |   181M |   0 |  18k| 830 | 787 |  12 |  3 | 106 |   0 | 3.784005e+04 | 3.608145e+04 |   4.87%| unknown
  4.7s|     1 |     0 |  4300 |     - |   181M |   0 |  18k| 830 | 789 |  14 |  4 | 106 |   0 | 3.783963e+04 | 3.608145e+04 |   4.87%| unknown
r 4.8s|     1 |     0 |  4300 |     - |rounding|   0 |  18k| 830 | 789 |  14 |  4 | 106 |   0 | 3.783963e+04 | 3.620045e+04 |   4.53%| unknown
  4.9s|     1 |     0 |  4328 |     - |   181M |   0 |  18k| 830 | 791 |  16 |  5 | 106 |   0 | 3.783937e+04 | 3.620045e+04 |   4.53%| unknown
r 4.9s|     1 |     0 |  4328 |     - |rounding|   0 |  18k| 830 | 791 |  16 |  5 | 106 |   0 | 3.783937e+04 | 3.638245e+04 |   4.00%| unknown
  4.9s|     1 |     0 |  4328 |     - |   181M |   0 |  18k| 830 | 791 |  16 |  5 | 106 |   0 | 3.783937e+04 | 3.638245e+04 |   4.00%| unknown
  4.9s|     1 |     0 |  4328 |     - |   182M |   0 |  18k| 830 | 791 |  16 |  5 | 106 |   0 | 3.783937e+04 | 3.638245e+04 |   4.00%| unknown
 time | node  | left  |LP iter|LP it/n|mem/heur|mdpt |vars |cons |rows |cuts |sepa|confs|strbr|  dualbound   | primalbound  |  gap   | compl. 
  5.0s|     1 |     0 |  4337 |     - |   182M |   0 |  18k| 830 | 792 |  17 |  6 | 106 |   0 | 3.783937e+04 | 3.638245e+04 |   4.00%| unknown
  5.1s|     1 |     0 |  4344 |     - |   182M |   0 |  18k| 829 | 793 |  18 |  7 | 106 |   0 | 3.783937e+04 | 3.638245e+04 |   4.00%| unknown
  5.2s|     1 |     0 |  4349 |     - |   183M |   0 |  18k| 829 | 794 |  19 |  8 | 106 |   0 | 3.783937e+04 | 3.638245e+04 |   4.00%| unknown
  5.3s|     1 |     0 |  4351 |     - |   183M |   0 |  18k| 829 | 795 |  20 |  9 | 106 |   0 | 3.783937e+04 | 3.638245e+04 |   4.00%| unknown
  5.4s|     1 |     0 |  4354 |     - |   183M |   0 |  18k| 829 | 796 |  21 | 10 | 106 |   0 | 3.783937e+04 | 3.638245e+04 |   4.00%| unknown
  5.5s|     1 |     0 |  4359 |     - |   183M |   0 |  18k| 829 | 797 |  22 | 11 | 106 |   0 | 3.783937e+04 | 3.638245e+04 |   4.00%| unknown
  5.6s|     1 |     0 |  4364 |     - |   183M |   0 |  18k| 829 | 798 |  23 | 12 | 106 |   0 | 3.783937e+04 | 3.638245e+04 |   4.00%| unknown
  5.7s|     1 |     0 |  4369 |     - |   183M |   0 |  18k| 829 | 799 |  24 | 13 | 106 |   0 | 3.783937e+04 | 3.638245e+04 |   4.00%| unknown
  5.7s|     1 |     0 |  4379 |     - |   183M |   0 |  18k| 829 | 800 |  25 | 14 | 106 |   0 | 3.783937e+04 | 3.638245e+04 |   4.00%| unknown
  5.8s|     1 |     0 |  4393 |     - |   183M |   0 |  18k| 829 | 801 |  26 | 15 | 106 |   0 | 3.783937e+04 | 3.638245e+04 |   4.00%| unknown
d 5.8s|     1 |     0 |  4455 |     - |farkasdi|   0 |  18k| 822 | 801 |   0 | 15 | 106 |   0 | 3.783937e+04 | 3.648345e+04 |   3.72%| unknown
(run 1, node 1) restarting after 4510 global fixings of integer variables

(restart) converted 21 cuts from the global cut pool into linear constraints

presolving:
(round 1, fast)       4510 del vars, 43 del conss, 0 add conss, 0 chg bounds, 0 chg sides, 23 chg coeffs, 0 upgd conss, 71 impls, 12000 clqs
   (6.2s) running MILP presolver
   (6.3s) MILP presolver found nothing
(round 2, exhaustive) 4510 del vars, 43 del conss, 0 add conss, 0 chg bounds, 0 chg sides, 23 chg coeffs, 21 upgd conss, 71 impls, 12000 clqs
(round 3, medium)     4510 del vars, 105 del conss, 107 add conss, 0 chg bounds, 0 chg sides, 23 chg coeffs, 21 upgd conss, 71 impls, 12000 clqs
presolving (4 rounds: 4 fast, 3 medium, 2 exhaustive):
 4510 deleted vars, 105 deleted constraints, 107 added constraints, 0 tightened bounds, 0 added holes, 0 changed sides, 23 changed coefficients
 71 implications, 12000 cliques
presolved problem has 14265 variables (14265 bin, 0 int, 0 impl, 0 cont) and 837 constraints
     19 constraints of type <knapsack>
    816 constraints of type <setppc>
      1 constraints of type <linear>
      1 constraints of type <logicor>
Presolving Time: 0.88
transformed 16/17 original solutions to the transformed problem space

 time | node  | left  |LP iter|LP it/n|mem/heur|mdpt |vars |cons |rows |cuts |sepa|confs|strbr|  dualbound   | primalbound  |  gap   | compl. 
  7.8s|     1 |     0 | 13329 |     - |   198M |   0 |  14k| 837 | 835 |   0 |  0 | 108 |   0 | 3.783917e+04 | 3.648345e+04 |   3.72%| unknown
  7.9s|     1 |     0 | 13329 |     - |   198M |   0 |  14k| 837 | 835 |   0 |  0 | 108 |   0 | 3.783917e+04 | 3.648345e+04 |   3.72%| unknown
  8.1s|     1 |     0 | 13353 |     - |   200M |   0 |  14k| 837 | 836 |   1 |  1 | 108 |   0 | 3.783875e+04 | 3.648345e+04 |   3.71%| unknown
  8.3s|     1 |     0 | 13486 |     - |   200M |   0 |  14k| 837 | 838 |   3 |  2 | 108 |   0 | 3.782034e+04 | 3.648345e+04 |   3.66%| unknown
  8.4s|     1 |     0 | 13741 |     - |   200M |   0 |  14k| 837 | 840 |   5 |  3 | 108 |   0 | 3.781025e+04 | 3.648345e+04 |   3.64%| unknown
  8.5s|     1 |     0 | 14037 |     - |   200M |   0 |  14k| 837 | 841 |   6 |  4 | 108 |   0 | 3.779912e+04 | 3.648345e+04 |   3.61%| unknown
  8.6s|     1 |     0 | 14121 |     - |   200M |   0 |  14k| 837 | 843 |   8 |  5 | 108 |   0 | 3.779798e+04 | 3.648345e+04 |   3.60%| unknown
  8.8s|     1 |     0 | 14200 |     - |   200M |   0 |  14k| 837 | 847 |  12 |  6 | 108 |   0 | 3.779770e+04 | 3.648345e+04 |   3.60%| unknown
  8.9s|     1 |     0 | 14286 |     - |   200M |   0 |  14k| 837 | 849 |  14 |  7 | 108 |   0 | 3.779770e+04 | 3.648345e+04 |   3.60%| unknown
  9.0s|     1 |     0 | 14347 |     - |   200M |   0 |  14k| 837 | 851 |  16 |  8 | 108 |   0 | 3.779770e+04 | 3.648345e+04 |   3.60%| unknown
  9.1s|     1 |     0 | 14451 |     - |   200M |   0 |  14k| 837 | 853 |  18 |  9 | 108 |   0 | 3.779770e+04 | 3.648345e+04 |   3.60%| unknown
  9.2s|     1 |     0 | 14592 |     - |   200M |   0 |  14k| 837 | 855 |  20 | 10 | 108 |   0 | 3.779770e+04 | 3.648345e+04 |   3.60%| unknown
  9.3s|     1 |     0 | 14681 |     - |   201M |   0 |  14k| 837 | 857 |  22 | 11 | 108 |   0 | 3.779770e+04 | 3.648345e+04 |   3.60%| unknown
  9.4s|     1 |     0 | 14855 |     - |   201M |   0 |  14k| 837 | 859 |  24 | 12 | 108 |   0 | 3.779770e+04 | 3.648345e+04 |   3.60%| unknown
  9.5s|     1 |     0 | 15018 |     - |   201M |   0 |  14k| 837 | 861 |  26 | 13 | 108 |   0 | 3.779770e+04 | 3.648345e+04 |   3.60%| unknown
 time | node  | left  |LP iter|LP it/n|mem/heur|mdpt |vars |cons |rows |cuts |sepa|confs|strbr|  dualbound   | primalbound  |  gap   | compl. 
  9.7s|     1 |     0 | 15213 |     - |   201M |   0 |  14k| 837 | 863 |  28 | 14 | 108 |   0 | 3.779770e+04 | 3.648345e+04 |   3.60%| unknown
  9.8s|     1 |     0 | 15413 |     - |   201M |   0 |  14k| 837 | 863 |  30 | 15 | 108 |   0 | 3.779739e+04 | 3.648345e+04 |   3.60%| unknown
 10.0s|     1 |     0 | 15500 |     - |   201M |   0 |  14k| 837 | 865 |  32 | 16 | 108 |   0 | 3.779739e+04 | 3.648345e+04 |   3.60%| unknown
d10.1s|     1 |     0 | 15937 |     - |farkasdi|   0 |  14k| 836 | 865 |   0 | 16 | 108 |   0 | 3.779739e+04 | 3.651745e+04 |   3.50%| unknown
d10.5s|     1 |     0 | 17241 |     - |conflict|   0 |  14k| 836 | 865 |   0 | 16 | 108 |   0 | 3.779739e+04 | 3.659245e+04 |   3.29%| unknown
 10.7s|     1 |     0 | 17540 |     - |   201M |   0 |  14k| 836 | 865 |  32 | 16 | 108 |   0 | 3.779739e+04 | 3.659245e+04 |   3.29%| unknown
 10.8s|     1 |     0 | 17692 |     - |   201M |   0 |  14k| 836 | 867 |  34 | 17 | 108 |   0 | 3.779734e+04 | 3.659245e+04 |   3.29%| unknown
 10.8s|     1 |     0 | 17780 |     - |   201M |   0 |  14k| 836 | 868 |  35 | 18 | 108 |   0 | 3.779235e+04 | 3.659245e+04 |   3.28%| unknown
 11.5s|     1 |     2 | 17781 |     - |   201M |   0 |  14k| 836 | 868 |  35 | 18 | 108 |  29 | 3.779199e+04 | 3.659245e+04 |   3.28%| unknown
*15.3s|     8 |     7 | 18325 | 390.9 |strongbr|   7 |  14k| 836 | 853 |  35 |  1 | 108 | 106 | 3.778572e+04 | 3.672045e+04 |   2.90%| unknown
*17.0s|    10 |     7 | 18632 | 343.4 |strongbr|   7 |  14k| 836 | 853 |  35 |  1 | 108 | 136 | 3.778572e+04 | 3.739545e+04 |   1.04%|   5.05%
*18.6s|    11 |     8 | 18695 | 317.9 |strongbr|   7 |  14k| 836 | 853 |  35 |  2 | 108 | 166 | 3.778572e+04 | 3.742345e+04 |   0.97%|   5.17%
*40.8s|    59 |     3 | 26954 | 199.3 |strongbr|  12 |  14k| 840 | 853 |  41 |  2 | 113 |1304 | 3.756693e+04 | 3.747645e+04 |   0.24%|  85.19%

SCIP Status        : problem is solved [optimal solution found]
Solving Time (sec) : 41.51
Solving Nodes      : 64 (total of 65 nodes in 2 runs)
Primal Bound       : +3.74764542113901e+04 (46 solutions)
Dual Bound         : +3.74764542113901e+04
Gap                : 0.00 %
Solve Status: optimal
Solve Time: 41.51 seconds
